qe/outputs/qe/qe_queries_cbrdelay_obs_redo/T=5,eliminate=[I_0,I_1,I_2,I_3,I_4,L_1,L_2,L_3,L_4,C,lhs=B].smt2
; benchmark generated from python API
(set-info :status unknown)
(declare-fun S_0 () Real)
(declare-fun B () Real)
(declare-fun S_4 () Real)
(declare-fun S_1 () Real)
(declare-fun L_0 () Real)
(declare-fun A_0 () Real)
(declare-fun S_3 () Real)
(declare-fun S_2 () Real)
(declare-fun A_1 () Real)
(declare-fun A_2 () Real)
(declare-fun A_3 () Real)
(declare-fun A_4 () Real)
(assert
 (let ((?x347 (* (- 1.0) S_1)))
 (let ((?x360 (* (- 1.0) S_3)))
 (let ((?x1841 (* (- 2.0) B)))
 (let ((?x1044 (* 2.0 S_4)))
 (let (($x5297 (<= (+ (* (- (/ 1.0 2.0)) S_4) (* (- 1.0) A_0) L_0 (* (/ 3.0 2.0) S_1)) 0.0)))
 (let ((?x1050 (* (- 1.0) S_0)))
 (let ((?x1412 (* (- 2.0) S_3)))
 (let ((?x1188 (* 3.0 S_4)))
 (let (($x1075 (<= (+ (* (- 2.0) S_4) (* (- 1.0) A_0) L_0 (* 3.0 S_2)) 0.0)))
 (let (($x34 (>= L_0 0.0)))
 (let (($x12355 (not (<= B 10.0))))
 (let (($x108 (>= S_1 S_0)))
 (let (($x111 (>= S_2 S_1)))
 (let (($x114 (>= S_3 S_2)))
 (let (($x117 (>= S_4 S_3)))
 (let (($x120 (>= A_2 A_1)))
 (let (($x121 (>= A_3 A_2)))
 (let (($x122 (>= A_4 A_3)))
 (and (<= (+ A_0 (* (- 1.0) L_0)) S_4) $x122 $x121 $x120 $x117 $x114 $x111 $x108 $x12355 $x34 (<= (+ (* (- 1.0) S_4) S_2) (- 5.0)) (not (>= (+ S_4 L_0 (* (- 1.0) A_1)) 0.0)) (<= (+ (* (- 2.0) S_4) (* 3.0 S_2) ?x347) 0.0) $x1075 (<= (+ (* (- 1.0) A_0) L_0 S_0) 0.0) (<= (+ (* (- (/ 1.0 2.0)) S_3) (* (/ 1.0 2.0) S_0)) (- 5.0)) (<= (+ (* (- (/ 1.0 3.0)) S_4) (* (/ 1.0 3.0) S_0)) (- 5.0)) (<= (+ ?x360 S_1) (- 5.0)) (<= (+ (* (- 1.0) A_0) L_0 ?x360 (* 2.0 S_1)) 0.0) (<= (+ S_4 ?x1412 S_0) 0.0) (<= (+ ?x1412 (* 3.0 S_1) ?x1050) 0.0) (not (>= (+ ?x1044 (* (- 1.0) A_0) L_0 ?x1841 ?x360) 0.0)) (not (>= (+ ?x1188 (* (- 3.0) B) ?x1412 ?x1050) 0.0)) (not (>= (+ S_4 (* (- 1.0) B) ?x360) (- 5.0))) (<= (+ (* (/ 1.0 3.0) S_4) ?x360 (* (/ 2.0 3.0) S_1)) 0.0) (not (>= (+ S_4 (* (- 1.0) B) (* (- 1.0) S_2)) 0.0)) (<= (+ (* (- (/ 1.0 2.0)) S_4) (* (/ 1.0 2.0) S_1)) (- 5.0)) $x5297 (<= (+ (* (/ 1.0 4.0) S_4) (* (- 1.0) S_2) (* (/ 3.0 4.0) S_0)) 0.0) (<= (+ (* (- 1.0) S_2) S_0) (- 5.0)) (<= (+ (* (- 1.0) S_4) (* 2.0 S_1) ?x1050) 0.0) (<= (+ (* (- 3.0) S_4) (* 4.0 S_2) ?x1050) 0.0) (not (>= (+ ?x1188 ?x1841 (* (- 3.0) S_3)) 0.0)) (<= (+ S_3 (* (- 3.0) S_2) (* 2.0 S_0)) 0.0) (not (>= (+ ?x1044 ?x1841 ?x360 ?x347) 0.0)) (not (>= (+ S_4 (* (- 1.0) A_0) L_0 (* (- (/ 3.0 2.0)) B)) 0.0)) (not (>= (+ S_4 (* (- (/ 3.0 2.0)) B) ?x347) 0.0)) (not (>= (+ S_4 ?x1841 ?x1050) 0.0))))))))))))))))))))))
(check-sat)
